sat
(
  (define-fun C1_VM2 () Int
    0)
  (define-fun C1_VM3 () Int
    0)
  (define-fun C4_VM4 () Int
    0)
  (define-fun C3_VM1 () Int
    0)
  (define-fun ProcProv2 () Int
    2)
  (define-fun PriceProv2 () Int
    126)
  (define-fun MemProv2 () Int
    3750)
  (define-fun C5_VM5 () Int
    0)
  (define-fun C3_VM5 () Int
    0)
  (define-fun StorageProv2 () Int
    2000)
  (define-fun C3_VM3 () Int
    0)
  (define-fun C1_VM4 () Int
    0)
  (define-fun MemProv5 () Int
    3750)
  (define-fun PriceProv4 () Int
    210)
  (define-fun StorageProv3 () Int
    2000)
  (define-fun StorageProv4 () Int
    2000)
  (define-fun PriceProv3 () Int
    210)
  (define-fun VM4Type () Int
    182)
  (define-fun ProcProv3 () Int
    4)
  (define-fun PriceProv5 () Int
    126)
  (define-fun ProcProv5 () Int
    2)
  (define-fun C4_VM5 () Int
    1)
  (define-fun C3_VM2 () Int
    0)
  (define-fun MemProv1 () Int
    7500)
  (define-fun MemProv3 () Int
    7500)
  (define-fun StorageProv1 () Int
    2000)
  (define-fun C1_VM5 () Int
    0)
  (define-fun VM1Type () Int
    182)
  (define-fun VM2Type () Int
    225)
  (define-fun VM5Type () Int
    225)
  (define-fun C4_VM2 () Int
    0)
  (define-fun StorageProv5 () Int
    2000)
  (define-fun C2_VM5 () Int
    0)
  (define-fun C2_VM2 () Int
    1)
  (define-fun C5_VM2 () Int
    0)
  (define-fun ProcProv4 () Int
    4)
  (define-fun C3_VM4 () Int
    1)
  (define-fun MemProv4 () Int
    7500)
  (define-fun C4_VM1 () Int
    0)
  (define-fun C5_VM3 () Int
    1)
  (define-fun PriceProv1 () Int
    210)
  (define-fun C4_VM3 () Int
    0)
  (define-fun C2_VM3 () Int
    0)
  (define-fun C2_VM4 () Int
    0)
  (define-fun VM3Type () Int
    182)
  (define-fun ProcProv1 () Int
    4)
  (define-fun C2_VM1 () Int
    0)
  (define-fun C5_VM4 () Int
    0)
  (define-fun C5_VM1 () Int
    0)
  (define-fun C1_VM1 () Int
    1)
)
(objectives
 ( 16)
 ((+ 0 PriceProv1 PriceProv2 PriceProv3 PriceProv4 PriceProv5) 882)
)
(:added-eqs                   49842
 :arith-eq-adapter            89394
 :arith-bound-propagations-lp 627
 :arith-conflicts             43
 :arith-diseq                 114759
 :arith-fixed-eqs             504
 :arith-lower                 151579
 :arith-make-feasible         67100
 :arith-max-columns           337
 :arith-max-rows              17
 :arith-upper                 83473
 :binary-propagations         283903
 :bv-bit2core                 3464
 :bv-dynamic-diseqs           131995
 :bv->core-eq                 663
 :conflicts                   1600
 :decisions                   138569
 :del-clause                  191114
 :final-checks                39
 :max-memory                  57.04
 :maxsat-cores                8
 :memory                      55.40
 :minimized-lits              2072
 :mk-bool-var                 179129
 :mk-clause                   192032
 :mk-clause-binary            6524
 :num-allocs                  922807856
 :num-checks                  67
 :pb-conflicts                10
 :pb-predicates               4
 :pb-propagations             45
 :pb-resolves                 10
 :propagations                338136
 :restarts                    6
 :rlimit-count                6578166
 :solve-eqs-elim-vars         2
 :solve-eqs-steps             16
 :time                        0.78
 :total-time                  0.79)
